Set parameter TokenServer to value "opt-license.discovery.wisc.edu"
Set parameter TimeLimit to value 1800
Gurobi Optimizer version 9.5.1 build v9.5.1rc2 (linux64)
Thread count: 40 physical cores, 80 logical processors, using up to 32 threads
Optimize a model with 14771 rows, 22120 columns and 80358 nonzeros
Model fingerprint: 0x29c4cf27
Variable types: 17220 continuous, 4900 integer (4900 binary)
Coefficient statistics:
  Matrix range     [1e+00, 3e+03]
  Objective range  [1e+00, 1e+01]
  Bounds range     [1e+00, 1e+00]
  RHS range        [1e+00, 4e+00]
Presolve removed 140 rows and 246 columns
Presolve time: 0.33s
Presolved: 14631 rows, 21874 columns, 79858 nonzeros
Variable types: 16974 continuous, 4900 integer (4900 binary)

Root relaxation: objective 1.147737e+02, 2521 iterations, 0.26 seconds (0.15 work units)

    Nodes    |    Current Node    |     Objective Bounds      |     Work
 Expl Unexpl |  Obj  Depth IntInf | Incumbent    BestBd   Gap | It/Node Time

     0     0  114.77366    0   42          -  114.77366      -     -    0s
H    0     0                     163.7921665  114.77366  29.9%     -    1s
H    0     0                     157.7436792  114.77366  27.2%     -    1s
H    0     0                     116.5886947  114.77366  1.56%     -    1s
     0     0  114.77366    0   45  116.58869  114.77366  1.56%     -    1s
     0     0  114.77366    0   42  116.58869  114.77366  1.56%     -    2s
H    0     0                     116.4105491  114.77366  1.41%     -    2s
H    0     0                     115.6624850  114.77366  0.77%     -    2s
H    0     0                     115.4396092  114.77366  0.58%     -    2s
     0     0  115.04051    0  159  115.43961  115.04051  0.35%     -    2s
     0     0  115.04051    0    4  115.43961  115.04051  0.35%     -    2s
     0     0  115.37922    0   16  115.43961  115.37922  0.05%     -    2s

Explored 1 nodes (4464 simplex iterations) in 2.51 seconds (1.13 work units)
Thread count was 32 (of 80 available processors)

Solution count 6: 115.44 115.662 116.411 ... 163.792

Optimal solution found (tolerance 1.00e-04)
Best objective 1.154396091977e+02, best bound 1.154396091977e+02, gap 0.0000%
